jobs  (incl. supersource/sink ):	52
RESOURCES
- renewable                 : 4 R
- nonrenewable              : 2 N
- doubly constrained        : 0 D
************************************************************************
PRECEDENCE RELATIONS:
jobnr.    #modes  #successors   successors
1	1	21		2 3 4 5 6 7 8 9 10 11 12 13 16 17 18 19 20 22 23 24 32 
2	3	13		51 50 49 48 47 45 44 43 35 31 29 27 21 
3	3	8		49 48 47 36 35 26 25 14 
4	3	7		50 49 35 30 28 27 14 
5	3	7		44 42 41 36 35 29 15 
6	3	9		51 50 47 46 45 34 33 27 25 
7	3	4		50 41 36 14 
8	3	13		48 47 46 45 44 43 42 41 40 39 35 34 33 
9	3	10		49 48 46 45 44 42 40 36 34 25 
10	3	8		49 47 45 44 41 36 35 21 
11	3	8		48 47 45 42 40 35 33 25 
12	3	6		46 42 35 33 28 25 
13	3	11		50 49 48 47 45 44 43 42 40 37 33 
14	3	5		45 44 43 42 21 
15	3	4		47 45 43 21 
16	3	7		45 42 41 40 39 37 33 
17	3	6		45 41 40 39 34 33 
18	3	6		50 43 42 39 35 33 
19	3	5		51 43 42 40 26 
20	3	5		51 43 42 39 26 
21	3	5		46 40 39 34 33 
22	3	6		51 48 46 44 39 37 
23	3	5		49 47 44 39 36 
24	3	5		46 44 40 38 37 
25	3	3		43 41 39 
26	3	3		41 38 37 
27	3	2		42 40 
28	3	2		44 40 
29	3	2		40 39 
30	3	2		47 41 
31	3	2		41 37 
32	3	2		39 38 
33	3	1		38 
34	3	1		37 
35	3	1		37 
36	3	1		38 
37	3	1		52 
38	3	1		52 
39	3	1		52 
40	3	1		52 
41	3	1		52 
42	3	1		52 
43	3	1		52 
44	3	1		52 
45	3	1		52 
46	3	1		52 
47	3	1		52 
48	3	1		52 
49	3	1		52 
50	3	1		52 
51	3	1		52 
52	1	0		
************************************************************************
REQUESTS/DURATIONS
jobnr.	mode	dur	R1	R2	R3	R4	N1	N2	
------------------------------------------------------------------------
1	1	0	0	0	0	0	0	0	
2	1	8	4	4	3	4	10	24	
	2	22	3	3	2	3	10	17	
	3	29	2	3	2	3	10	12	
3	1	2	3	3	3	3	26	2	
	2	4	3	3	2	3	25	2	
	3	22	3	3	2	3	22	2	
4	1	18	4	4	4	4	20	15	
	2	19	3	4	4	2	12	10	
	3	30	2	3	4	2	7	9	
5	1	2	4	1	4	4	20	25	
	2	17	3	1	4	4	18	22	
	3	29	3	1	4	3	18	21	
6	1	1	4	3	5	4	14	10	
	2	26	3	1	3	3	10	7	
	3	27	2	1	1	1	8	4	
7	1	1	4	2	5	4	23	17	
	2	10	4	2	4	3	18	8	
	3	12	3	2	3	2	14	7	
8	1	8	5	3	3	3	28	19	
	2	21	4	2	3	2	23	19	
	3	30	4	2	3	2	19	19	
9	1	14	3	2	3	2	10	4	
	2	19	3	1	3	1	10	3	
	3	24	3	1	2	1	8	2	
10	1	20	4	2	5	4	15	24	
	2	22	3	2	4	2	11	20	
	3	30	3	2	4	2	10	14	
11	1	7	2	3	5	4	9	16	
	2	9	2	2	3	4	7	13	
	3	18	2	2	3	4	3	3	
12	1	11	4	4	5	4	12	10	
	2	16	4	2	5	4	11	7	
	3	28	3	2	5	3	9	5	
13	1	22	3	1	5	2	9	18	
	2	25	2	1	3	2	8	11	
	3	30	2	1	2	2	5	7	
14	1	8	5	4	3	4	27	10	
	2	21	3	2	2	4	12	9	
	3	30	3	2	1	4	7	9	
15	1	18	3	3	3	4	9	25	
	2	22	3	2	2	4	9	25	
	3	24	3	2	1	3	6	25	
16	1	15	2	3	2	2	30	12	
	2	20	1	3	2	2	29	9	
	3	27	1	2	2	1	29	6	
17	1	1	5	3	5	2	23	14	
	2	19	4	2	3	1	17	12	
	3	23	3	2	2	1	13	12	
18	1	7	2	4	5	2	24	22	
	2	8	1	4	3	1	17	17	
	3	27	1	2	3	1	5	14	
19	1	4	4	1	4	4	16	18	
	2	6	3	1	2	4	13	8	
	3	15	1	1	1	4	10	5	
20	1	4	5	4	3	3	16	17	
	2	12	2	2	2	3	8	16	
	3	13	1	2	2	3	6	16	
21	1	18	4	4	3	4	15	14	
	2	19	2	3	2	3	6	11	
	3	26	2	2	2	3	2	9	
22	1	4	5	3	4	5	22	10	
	2	10	4	2	4	5	18	9	
	3	20	3	1	3	5	17	4	
23	1	1	3	4	4	5	30	12	
	2	3	2	2	3	4	29	11	
	3	15	2	2	2	4	29	10	
24	1	1	4	5	4	3	19	18	
	2	22	4	3	3	3	18	13	
	3	23	4	3	2	2	10	5	
25	1	6	1	1	5	3	15	17	
	2	15	1	1	5	2	12	17	
	3	20	1	1	5	2	12	14	
26	1	1	4	4	4	5	10	27	
	2	4	3	2	3	4	4	25	
	3	17	2	1	3	3	1	23	
27	1	8	5	5	4	5	20	27	
	2	16	4	4	4	5	8	18	
	3	20	4	3	4	5	3	16	
28	1	18	4	4	4	4	10	26	
	2	20	3	3	3	4	8	20	
	3	25	3	1	3	3	7	13	
29	1	4	5	4	3	4	19	25	
	2	5	4	4	3	2	16	18	
	3	12	4	4	3	1	14	8	
30	1	12	2	3	1	5	17	24	
	2	26	2	3	1	4	14	21	
	3	30	2	3	1	2	13	15	
31	1	6	3	4	3	5	18	27	
	2	14	2	3	2	4	12	25	
	3	21	2	2	1	3	9	24	
32	1	11	3	4	1	1	28	15	
	2	21	3	4	1	1	25	7	
	3	29	3	2	1	1	24	4	
33	1	8	5	2	2	3	23	26	
	2	27	3	2	2	3	19	26	
	3	30	2	1	2	3	17	24	
34	1	1	4	4	2	3	16	9	
	2	13	3	2	2	3	15	9	
	3	29	2	1	1	3	14	9	
35	1	5	5	4	3	2	10	17	
	2	18	4	4	3	1	10	10	
	3	26	3	3	1	1	9	8	
36	1	16	1	3	5	4	18	26	
	2	21	1	3	3	2	16	25	
	3	25	1	1	3	2	15	21	
37	1	9	5	4	4	5	5	18	
	2	11	4	4	4	3	3	17	
	3	19	2	3	4	2	3	15	
38	1	5	2	2	3	2	13	10	
	2	10	2	1	3	1	11	10	
	3	23	2	1	3	1	8	10	
39	1	5	5	3	5	3	15	17	
	2	7	3	2	4	3	12	12	
	3	19	3	2	3	3	7	5	
40	1	16	5	4	5	3	25	27	
	2	22	2	3	4	3	19	24	
	3	23	1	3	4	2	18	18	
41	1	3	4	5	4	1	12	22	
	2	20	3	5	4	1	7	15	
	3	25	3	5	3	1	4	5	
42	1	4	4	3	2	2	11	4	
	2	11	3	3	1	1	8	3	
	3	21	3	3	1	1	6	3	
43	1	11	3	3	4	2	29	27	
	2	26	2	1	4	1	24	19	
	3	27	2	1	4	1	22	17	
44	1	3	5	3	5	4	28	17	
	2	11	4	3	4	2	22	14	
	3	12	4	2	4	2	12	13	
45	1	13	4	4	3	3	16	10	
	2	14	4	3	3	3	10	6	
	3	22	3	3	1	3	6	6	
46	1	1	5	2	3	3	21	12	
	2	13	5	1	3	3	16	7	
	3	23	5	1	2	3	11	7	
47	1	11	4	4	2	3	21	12	
	2	15	3	4	2	1	18	10	
	3	27	2	4	1	1	15	10	
48	1	17	4	4	3	2	30	20	
	2	21	3	4	2	1	29	16	
	3	28	3	4	2	1	29	12	
49	1	1	1	5	1	5	21	15	
	2	12	1	3	1	4	15	10	
	3	19	1	3	1	3	14	9	
50	1	18	3	3	3	4	4	16	
	2	26	2	1	2	4	4	11	
	3	27	2	1	2	4	3	7	
51	1	16	3	5	3	4	21	26	
	2	22	2	4	3	4	18	25	
	3	29	2	3	1	4	16	25	
52	1	0	0	0	0	0	0	0	
************************************************************************

 RESOURCE AVAILABILITIES 
	R 1	R 2	R 3	R 4	N 1	N 2
	59	48	62	53	741	718

************************************************************************
